NAME : in_house_9_15
TYPE : TSP
DIMENSION : 9
EDGE_WEIGHT_TYPE : EXPLICIT
EDGE_WEIGHT_FORMAT : UPPER_ROW
COMMENT : INVERSION_SHIFT=2
EDGE_WEIGHT_SECTION
58
8
52
43
38
81
46
22
74
17
65
28
15
58
6
19
23
66
69
75
62
37
77
56
36
74
40
75
29
58
67
39
68
76
32
57
